NAME 
OBJSENSE MAX
ROWS
 N  OBJ
 L  packing[0]
 L  packing[1]
 L  packing[2]
 L  packing[3]
 L  packing[4]
 L  packing[5]
 L  packing[6]
 L  packing[7]
 L  packing[8]
 L  packing[9]
 L  packing[10]
 L  packing[11]
 L  packing[12]
 L  packing[13]
 L  packing[14]
 L  packing[15]
 L  packing[16]
 L  packing[17]
 L  packing[18]
 L  packing[19]
 L  packing[20]
 L  packing[21]
 L  packing[22]
 L  packing[23]
 L  packing[24]
 L  packing[25]
 L  packing[26]
 L  packing[27]
 L  packing[28]
 L  packing[29]
 L  packing[30]
 L  packing[31]
 L  packing[32]
 L  packing[33]
 L  packing[34]
 L  packing[35]
 L  packing[36]
 L  packing[37]
 L  packing[38]
 L  packing[39]
 L  packing[40]
 L  packing[41]
 L  packing[42]
 L  packing[43]
 L  packing[44]
 L  packing[45]
 L  packing[46]
 L  packing[47]
 L  packing[48]
 L  packing[49]
 L  R63     
COLUMNS
    MARKER    'MARKER'                 'INTORG'
    x[1]      OBJ       155
    x[1]      packing[0]  52
    x[1]      packing[1]  125
    x[1]      packing[2]  62
    x[1]      packing[3]  73
    x[1]      packing[4]  161
    x[1]      packing[5]  192
    x[1]      packing[6]  152
    x[1]      packing[8]  23
    x[1]      packing[9]  159
    x[1]      packing[10]  32
    x[1]      packing[11]  11
    x[1]      packing[13]  150
    x[1]      packing[14]  43
    x[1]      packing[15]  68
    x[1]      packing[16]  165
    x[1]      packing[17]  112
    x[1]      packing[19]  4
    x[1]      packing[21]  199
    x[1]      packing[22]  133
    x[1]      packing[23]  175
    x[1]      packing[24]  62
    x[1]      packing[25]  194
    x[1]      packing[27]  156
    x[1]      packing[30]  194
    x[1]      packing[31]  48
    x[1]      packing[32]  137
    x[1]      packing[34]  34
    x[1]      packing[35]  145
    x[1]      packing[37]  110
    x[1]      packing[39]  190
    x[1]      packing[40]  134
    x[1]      packing[41]  165
    x[1]      packing[42]  184
    x[1]      packing[43]  35
    x[1]      packing[44]  151
    x[1]      packing[45]  113
    x[1]      packing[47]  29
    x[1]      packing[48]  91
    x[1]      packing[49]  72
    x[2]      OBJ       41
    x[2]      packing[0]  181
    x[2]      packing[1]  89
    x[2]      packing[2]  104
    x[2]      packing[3]  83
    x[2]      packing[4]  72
    x[2]      packing[5]  107
    x[2]      packing[6]  173
    x[2]      packing[7]  175
    x[2]      packing[8]  153
    x[2]      packing[9]  69
    x[2]      packing[10]  92
    x[2]      packing[11]  2
    x[2]      packing[12]  140
    x[2]      packing[13]  104
    x[2]      packing[15]  6
    x[2]      packing[16]  46
    x[2]      packing[17]  98
    x[2]      packing[18]  137
    x[2]      packing[19]  181
    x[2]      packing[20]  71
    x[2]      packing[21]  83
    x[2]      packing[23]  77
    x[2]      packing[26]  28
    x[2]      packing[27]  197
    x[2]      packing[28]  134
    x[2]      packing[29]  189
    x[2]      packing[30]  140
    x[2]      packing[31]  121
    x[2]      packing[33]  77
    x[2]      packing[35]  29
    x[2]      packing[37]  171
    x[2]      packing[38]  93
    x[2]      packing[39]  172
    x[2]      packing[40]  192
    x[2]      packing[41]  5
    x[2]      packing[42]  185
    x[2]      packing[43]  22
    x[2]      packing[44]  33
    x[2]      packing[45]  27
    x[2]      packing[46]  124
    x[2]      packing[47]  108
    x[2]      packing[48]  187
    x[2]      packing[49]  168
    x[3]      OBJ       64
    x[3]      packing[0]  47
    x[3]      packing[1]  94
    x[3]      packing[2]  110
    x[3]      packing[4]  148
    x[3]      packing[8]  118
    x[3]      packing[9]  167
    x[3]      packing[10]  35
    x[3]      packing[11]  189
    x[3]      packing[12]  196
    x[3]      packing[13]  98
    x[3]      packing[14]  111
    x[3]      packing[15]  96
    x[3]      packing[16]  139
    x[3]      packing[19]  121
    x[3]      packing[21]  31
    x[3]      packing[22]  120
    x[3]      packing[23]  160
    x[3]      packing[24]  147
    x[3]      packing[25]  38
    x[3]      packing[28]  156
    x[3]      packing[29]  79
    x[3]      packing[30]  85
    x[3]      packing[32]  37
    x[3]      packing[33]  165
    x[3]      packing[36]  48
    x[3]      packing[37]  56
    x[3]      packing[38]  157
    x[3]      packing[40]  174
    x[3]      packing[41]  23
    x[3]      packing[42]  64
    x[3]      packing[43]  70
    x[3]      packing[44]  165
    x[3]      packing[45]  32
    x[3]      packing[46]  126
    x[3]      packing[47]  29
    x[3]      packing[48]  95
    x[3]      packing[49]  2
    x[4]      OBJ       139
    x[4]      packing[0]  55
    x[4]      packing[2]  149
    x[4]      packing[3]  33
    x[4]      packing[5]  66
    x[4]      packing[6]  182
    x[4]      packing[7]  94
    x[4]      packing[8]  149
    x[4]      packing[9]  9
    x[4]      packing[10]  100
    x[4]      packing[12]  20
    x[4]      packing[14]  11
    x[4]      packing[15]  113
    x[4]      packing[16]  19
    x[4]      packing[17]  197
    x[4]      packing[19]  53
    x[4]      packing[20]  50
    x[4]      packing[22]  175
    x[4]      packing[23]  171
    x[4]      packing[24]  109
    x[4]      packing[25]  179
    x[4]      packing[26]  187
    x[4]      packing[27]  175
    x[4]      packing[28]  3
    x[4]      packing[29]  65
    x[4]      packing[30]  31
    x[4]      packing[31]  153
    x[4]      packing[32]  135
    x[4]      packing[33]  101
    x[4]      packing[34]  130
    x[4]      packing[35]  67
    x[4]      packing[36]  52
    x[4]      packing[37]  155
    x[4]      packing[38]  41
    x[4]      packing[39]  99
    x[4]      packing[40]  61
    x[4]      packing[41]  5
    x[4]      packing[42]  97
    x[4]      packing[43]  2
    x[4]      packing[44]  143
    x[4]      packing[45]  51
    x[4]      packing[46]  163
    x[4]      packing[47]  196
    x[4]      packing[48]  189
    x[4]      packing[49]  198
    x[5]      OBJ       176
    x[5]      packing[0]  190
    x[5]      packing[2]  195
    x[5]      packing[3]  68
    x[5]      packing[4]  85
    x[5]      packing[5]  199
    x[5]      packing[6]  153
    x[5]      packing[7]  76
    x[5]      packing[8]  54
    x[5]      packing[9]  187
    x[5]      packing[11]  45
    x[5]      packing[12]  90
    x[5]      packing[13]  111
    x[5]      packing[15]  54
    x[5]      packing[16]  160
    x[5]      packing[17]  164
    x[5]      packing[18]  120
    x[5]      packing[19]  134
    x[5]      packing[22]  64
    x[5]      packing[23]  45
    x[5]      packing[26]  93
    x[5]      packing[27]  152
    x[5]      packing[28]  111
    x[5]      packing[29]  132
    x[5]      packing[31]  69
    x[5]      packing[33]  31
    x[5]      packing[34]  135
    x[5]      packing[37]  158
    x[5]      packing[38]  194
    x[5]      packing[39]  13
    x[5]      packing[40]  87
    x[5]      packing[42]  144
    x[5]      packing[43]  11
    x[5]      packing[44]  139
    x[5]      packing[45]  5
    x[5]      packing[46]  107
    x[5]      packing[47]  54
    x[5]      packing[48]  95
    x[5]      packing[49]  180
    x[5]      R63       1
    x[6]      OBJ       35
    x[6]      packing[1]  180
    x[6]      packing[2]  13
    x[6]      packing[3]  123
    x[6]      packing[4]  147
    x[6]      packing[5]  195
    x[6]      packing[6]  26
    x[6]      packing[7]  4
    x[6]      packing[8]  8
    x[6]      packing[9]  151
    x[6]      packing[10]  63
    x[6]      packing[11]  37
    x[6]      packing[12]  178
    x[6]      packing[13]  153
    x[6]      packing[14]  62
    x[6]      packing[15]  21
    x[6]      packing[16]  96
    x[6]      packing[17]  84
    x[6]      packing[22]  54
    x[6]      packing[23]  20
    x[6]      packing[24]  180
    x[6]      packing[25]  190
    x[6]      packing[26]  108
    x[6]      packing[28]  85
    x[6]      packing[29]  101
    x[6]      packing[30]  59
    x[6]      packing[31]  93
    x[6]      packing[32]  27
    x[6]      packing[33]  135
    x[6]      packing[34]  145
    x[6]      packing[35]  39
    x[6]      packing[36]  97
    x[6]      packing[39]  169
    x[6]      packing[41]  20
    x[6]      packing[42]  176
    x[6]      packing[43]  72
    x[6]      packing[44]  24
    x[6]      packing[46]  30
    x[6]      packing[49]  178
    x[7]      OBJ       114
    x[7]      packing[0]  115
    x[7]      packing[1]  39
    x[7]      packing[2]  191
    x[7]      packing[3]  71
    x[7]      packing[4]  95
    x[7]      packing[6]  88
    x[7]      packing[7]  149
    x[7]      packing[9]  53
    x[7]      packing[11]  117
    x[7]      packing[14]  100
    x[7]      packing[15]  181
    x[7]      packing[16]  94
    x[7]      packing[17]  154
    x[7]      packing[18]  7
    x[7]      packing[19]  100
    x[7]      packing[22]  88
    x[7]      packing[24]  37
    x[7]      packing[25]  163
    x[7]      packing[27]  49
    x[7]      packing[28]  108
    x[7]      packing[29]  153
    x[7]      packing[31]  179
    x[7]      packing[32]  103
    x[7]      packing[33]  93
    x[7]      packing[35]  31
    x[7]      packing[36]  66
    x[7]      packing[37]  122
    x[7]      packing[39]  91
    x[7]      packing[40]  154
    x[7]      packing[41]  3
    x[7]      packing[43]  35
    x[7]      packing[45]  111
    x[7]      packing[46]  194
    x[7]      packing[47]  144
    x[7]      packing[48]  87
    x[7]      packing[49]  24
    x[8]      OBJ       44
    x[8]      packing[0]  50
    x[8]      packing[1]  193
    x[8]      packing[3]  100
    x[8]      packing[5]  19
    x[8]      packing[8]  189
    x[8]      packing[9]  198
    x[8]      packing[10]  174
    x[8]      packing[13]  48
    x[8]      packing[14]  117
    x[8]      packing[16]  25
    x[8]      packing[17]  11
    x[8]      packing[21]  183
    x[8]      packing[22]  157
    x[8]      packing[23]  63
    x[8]      packing[24]  128
    x[8]      packing[25]  160
    x[8]      packing[26]  26
    x[8]      packing[28]  118
    x[8]      packing[29]  148
    x[8]      packing[30]  14
    x[8]      packing[32]  54
    x[8]      packing[33]  196
    x[8]      packing[34]  183
    x[8]      packing[35]  30
    x[8]      packing[36]  132
    x[8]      packing[39]  89
    x[8]      packing[40]  10
    x[8]      packing[41]  190
    x[8]      packing[42]  43
    x[8]      packing[44]  104
    x[8]      packing[45]  57
    x[8]      packing[46]  48
    x[8]      packing[47]  95
    x[8]      packing[48]  136
    x[8]      packing[49]  15
    x[9]      OBJ       37
    x[9]      packing[0]  111
    x[9]      packing[1]  82
    x[9]      packing[3]  84
    x[9]      packing[4]  133
    x[9]      packing[6]  21
    x[9]      packing[7]  112
    x[9]      packing[8]  63
    x[9]      packing[9]  29
    x[9]      packing[10]  28
    x[9]      packing[11]  14
    x[9]      packing[12]  57
    x[9]      packing[13]  4
    x[9]      packing[14]  23
    x[9]      packing[15]  78
    x[9]      packing[16]  25
    x[9]      packing[17]  184
    x[9]      packing[18]  143
    x[9]      packing[19]  48
    x[9]      packing[20]  125
    x[9]      packing[22]  62
    x[9]      packing[24]  156
    x[9]      packing[26]  161
    x[9]      packing[27]  24
    x[9]      packing[28]  194
    x[9]      packing[29]  187
    x[9]      packing[30]  110
    x[9]      packing[33]  183
    x[9]      packing[35]  126
    x[9]      packing[36]  44
    x[9]      packing[38]  115
    x[9]      packing[42]  60
    x[9]      packing[43]  92
    x[9]      packing[44]  119
    x[9]      packing[45]  40
    x[9]      packing[46]  110
    x[9]      packing[48]  35
    x[9]      packing[49]  68
    x[10]     OBJ       105
    x[10]     packing[0]  131
    x[10]     packing[1]  82
    x[10]     packing[3]  30
    x[10]     packing[4]  52
    x[10]     packing[5]  173
    x[10]     packing[8]  106
    x[10]     packing[9]  119
    x[10]     packing[11]  117
    x[10]     packing[12]  60
    x[10]     packing[13]  118
    x[10]     packing[14]  42
    x[10]     packing[15]  17
    x[10]     packing[16]  135
    x[10]     packing[18]  103
    x[10]     packing[19]  55
    x[10]     packing[21]  114
    x[10]     packing[22]  13
    x[10]     packing[23]  76
    x[10]     packing[24]  12
    x[10]     packing[25]  193
    x[10]     packing[26]  198
    x[10]     packing[27]  114
    x[10]     packing[28]  17
    x[10]     packing[29]  193
    x[10]     packing[30]  32
    x[10]     packing[31]  181
    x[10]     packing[32]  159
    x[10]     packing[33]  166
    x[10]     packing[34]  76
    x[10]     packing[35]  160
    x[10]     packing[36]  84
    x[10]     packing[37]  190
    x[10]     packing[38]  122
    x[10]     packing[40]  112
    x[10]     packing[41]  141
    x[10]     packing[42]  114
    x[10]     packing[43]  17
    x[10]     packing[44]  145
    x[10]     packing[45]  68
    x[10]     packing[46]  194
    x[10]     packing[47]  31
    x[10]     packing[48]  171
    x[10]     packing[49]  39
    x[10]     R63       1
    x[11]     OBJ       170
    x[11]     packing[0]  17
    x[11]     packing[1]  166
    x[11]     packing[2]  132
    x[11]     packing[3]  169
    x[11]     packing[5]  100
    x[11]     packing[6]  88
    x[11]     packing[8]  8
    x[11]     packing[9]  76
    x[11]     packing[11]  11
    x[11]     packing[12]  47
    x[11]     packing[13]  41
    x[11]     packing[14]  145
    x[11]     packing[15]  169
    x[11]     packing[16]  10
    x[11]     packing[17]  57
    x[11]     packing[18]  131
    x[11]     packing[20]  28
    x[11]     packing[21]  18
    x[11]     packing[22]  131
    x[11]     packing[26]  184
    x[11]     packing[27]  29
    x[11]     packing[28]  158
    x[11]     packing[29]  198
    x[11]     packing[30]  152
    x[11]     packing[31]  175
    x[11]     packing[32]  196
    x[11]     packing[34]  130
    x[11]     packing[35]  143
    x[11]     packing[39]  54
    x[11]     packing[40]  2
    x[11]     packing[41]  83
    x[11]     packing[42]  151
    x[11]     packing[44]  118
    x[11]     packing[45]  153
    x[11]     packing[47]  53
    x[11]     packing[49]  177
    x[12]     OBJ       18
    x[12]     packing[0]  197
    x[12]     packing[1]  143
    x[12]     packing[2]  74
    x[12]     packing[3]  45
    x[12]     packing[4]  25
    x[12]     packing[5]  117
    x[12]     packing[6]  141
    x[12]     packing[7]  153
    x[12]     packing[8]  9
    x[12]     packing[9]  116
    x[12]     packing[10]  145
    x[12]     packing[12]  94
    x[12]     packing[13]  50
    x[12]     packing[14]  88
    x[12]     packing[16]  13
    x[12]     packing[17]  59
    x[12]     packing[18]  46
    x[12]     packing[19]  167
    x[12]     packing[20]  107
    x[12]     packing[22]  70
    x[12]     packing[25]  173
    x[12]     packing[26]  17
    x[12]     packing[28]  3
    x[12]     packing[29]  4
    x[12]     packing[30]  129
    x[12]     packing[31]  167
    x[12]     packing[32]  56
    x[12]     packing[33]  22
    x[12]     packing[35]  20
    x[12]     packing[36]  125
    x[12]     packing[37]  64
    x[12]     packing[38]  77
    x[12]     packing[39]  144
    x[12]     packing[41]  145
    x[12]     packing[42]  115
    x[12]     packing[44]  3
    x[12]     packing[45]  182
    x[12]     packing[46]  79
    x[12]     packing[47]  149
    x[12]     packing[48]  18
    x[12]     packing[49]  21
    x[13]     OBJ       83
    x[13]     packing[0]  63
    x[13]     packing[1]  74
    x[13]     packing[2]  118
    x[13]     packing[3]  149
    x[13]     packing[4]  44
    x[13]     packing[5]  106
    x[13]     packing[6]  83
    x[13]     packing[7]  48
    x[13]     packing[8]  66
    x[13]     packing[9]  153
    x[13]     packing[10]  106
    x[13]     packing[11]  59
    x[13]     packing[13]  16
    x[13]     packing[15]  143
    x[13]     packing[16]  67
    x[13]     packing[17]  122
    x[13]     packing[18]  162
    x[13]     packing[19]  122
    x[13]     packing[22]  49
    x[13]     packing[23]  161
    x[13]     packing[25]  195
    x[13]     packing[26]  129
    x[13]     packing[27]  5
    x[13]     packing[28]  79
    x[13]     packing[29]  27
    x[13]     packing[31]  135
    x[13]     packing[32]  171
    x[13]     packing[34]  179
    x[13]     packing[35]  185
    x[13]     packing[36]  94
    x[13]     packing[37]  103
    x[13]     packing[38]  166
    x[13]     packing[39]  161
    x[13]     packing[40]  144
    x[13]     packing[41]  147
    x[13]     packing[42]  87
    x[13]     packing[45]  84
    x[13]     packing[46]  49
    x[13]     packing[47]  120
    x[13]     packing[49]  190
    x[14]     OBJ       16
    x[14]     packing[1]  158
    x[14]     packing[3]  190
    x[14]     packing[4]  145
    x[14]     packing[5]  171
    x[14]     packing[7]  91
    x[14]     packing[8]  96
    x[14]     packing[9]  4
    x[14]     packing[10]  61
    x[14]     packing[12]  43
    x[14]     packing[13]  199
    x[14]     packing[15]  30
    x[14]     packing[16]  102
    x[14]     packing[17]  168
    x[14]     packing[18]  152
    x[14]     packing[19]  16
    x[14]     packing[20]  147
    x[14]     packing[21]  39
    x[14]     packing[22]  163
    x[14]     packing[23]  56
    x[14]     packing[24]  11
    x[14]     packing[25]  178
    x[14]     packing[26]  47
    x[14]     packing[27]  59
    x[14]     packing[28]  17
    x[14]     packing[29]  106
    x[14]     packing[30]  188
    x[14]     packing[32]  91
    x[14]     packing[33]  2
    x[14]     packing[34]  3
    x[14]     packing[36]  14
    x[14]     packing[37]  85
    x[14]     packing[38]  116
    x[14]     packing[40]  99
    x[14]     packing[41]  42
    x[14]     packing[42]  67
    x[14]     packing[43]  185
    x[14]     packing[45]  60
    x[14]     packing[47]  118
    x[14]     packing[48]  174
    x[15]     OBJ       169
    x[15]     packing[0]  55
    x[15]     packing[1]  27
    x[15]     packing[2]  62
    x[15]     packing[3]  126
    x[15]     packing[4]  67
    x[15]     packing[5]  108
    x[15]     packing[6]  82
    x[15]     packing[7]  80
    x[15]     packing[8]  117
    x[15]     packing[11]  101
    x[15]     packing[12]  17
    x[15]     packing[13]  166
    x[15]     packing[14]  192
    x[15]     packing[15]  16
    x[15]     packing[17]  50
    x[15]     packing[18]  29
    x[15]     packing[20]  177
    x[15]     packing[22]  48
    x[15]     packing[23]  133
    x[15]     packing[24]  191
    x[15]     packing[25]  74
    x[15]     packing[26]  199
    x[15]     packing[27]  172
    x[15]     packing[28]  158
    x[15]     packing[32]  72
    x[15]     packing[35]  103
    x[15]     packing[37]  199
    x[15]     packing[39]  1
    x[15]     packing[40]  68
    x[15]     packing[42]  83
    x[15]     packing[43]  101
    x[15]     packing[44]  25
    x[15]     packing[45]  130
    x[15]     packing[46]  163
    x[15]     packing[47]  74
    x[15]     packing[48]  21
    x[16]     OBJ       127
    x[16]     packing[1]  27
    x[16]     packing[2]  125
    x[16]     packing[4]  12
    x[16]     packing[6]  188
    x[16]     packing[8]  193
    x[16]     packing[9]  27
    x[16]     packing[10]  195
    x[16]     packing[11]  42
    x[16]     packing[12]  54
    x[16]     packing[13]  191
    x[16]     packing[14]  151
    x[16]     packing[16]  83
    x[16]     packing[17]  12
    x[16]     packing[18]  180
    x[16]     packing[19]  92
    x[16]     packing[20]  67
    x[16]     packing[21]  58
    x[16]     packing[22]  2
    x[16]     packing[23]  165
    x[16]     packing[24]  141
    x[16]     packing[26]  4
    x[16]     packing[27]  31
    x[16]     packing[28]  75
    x[16]     packing[31]  154
    x[16]     packing[32]  110
    x[16]     packing[34]  152
    x[16]     packing[35]  61
    x[16]     packing[36]  120
    x[16]     packing[37]  193
    x[16]     packing[38]  84
    x[16]     packing[39]  6
    x[16]     packing[41]  151
    x[16]     packing[42]  13
    x[16]     packing[46]  117
    x[16]     packing[47]  109
    x[16]     packing[48]  26
    x[16]     packing[49]  160
    x[16]     R63       1
    x[17]     OBJ       167
    x[17]     packing[0]  78
    x[17]     packing[1]  1
    x[17]     packing[2]  158
    x[17]     packing[3]  19
    x[17]     packing[4]  138
    x[17]     packing[5]  74
    x[17]     packing[6]  119
    x[17]     packing[7]  77
    x[17]     packing[8]  193
    x[17]     packing[9]  133
    x[17]     packing[10]  175
    x[17]     packing[12]  70
    x[17]     packing[13]  67
    x[17]     packing[14]  189
    x[17]     packing[15]  92
    x[17]     packing[16]  152
    x[17]     packing[18]  191
    x[17]     packing[19]  160
    x[17]     packing[22]  78
    x[17]     packing[23]  115
    x[17]     packing[25]  129
    x[17]     packing[26]  81
    x[17]     packing[27]  87
    x[17]     packing[28]  180
    x[17]     packing[29]  93
    x[17]     packing[30]  24
    x[17]     packing[31]  59
    x[17]     packing[32]  54
    x[17]     packing[34]  164
    x[17]     packing[35]  103
    x[17]     packing[36]  5
    x[17]     packing[37]  98
    x[17]     packing[38]  130
    x[17]     packing[39]  86
    x[17]     packing[42]  89
    x[17]     packing[43]  89
    x[17]     packing[44]  143
    x[17]     packing[45]  4
    x[17]     packing[48]  62
    x[17]     R63       1
    x[18]     OBJ       188
    x[18]     packing[0]  130
    x[18]     packing[1]  161
    x[18]     packing[2]  15
    x[18]     packing[4]  34
    x[18]     packing[5]  102
    x[18]     packing[6]  142
    x[18]     packing[7]  19
    x[18]     packing[10]  97
    x[18]     packing[11]  8
    x[18]     packing[14]  25
    x[18]     packing[15]  195
    x[18]     packing[18]  20
    x[18]     packing[19]  35
    x[18]     packing[21]  139
    x[18]     packing[22]  107
    x[18]     packing[23]  59
    x[18]     packing[24]  10
    x[18]     packing[25]  188
    x[18]     packing[26]  70
    x[18]     packing[27]  44
    x[18]     packing[28]  159
    x[18]     packing[29]  97
    x[18]     packing[30]  21
    x[18]     packing[31]  101
    x[18]     packing[33]  140
    x[18]     packing[34]  84
    x[18]     packing[36]  74
    x[18]     packing[38]  84
    x[18]     packing[39]  170
    x[18]     packing[40]  47
    x[18]     packing[41]  40
    x[18]     packing[42]  132
    x[18]     packing[45]  82
    x[18]     packing[47]  111
    x[18]     packing[48]  165
    x[18]     packing[49]  25
    x[18]     R63       1
    x[19]     OBJ       67
    x[19]     packing[3]  113
    x[19]     packing[4]  36
    x[19]     packing[5]  82
    x[19]     packing[7]  184
    x[19]     packing[8]  26
    x[19]     packing[11]  152
    x[19]     packing[12]  193
    x[19]     packing[13]  15
    x[19]     packing[15]  108
    x[19]     packing[16]  15
    x[19]     packing[17]  138
    x[19]     packing[18]  35
    x[19]     packing[19]  24
    x[19]     packing[20]  154
    x[19]     packing[21]  63
    x[19]     packing[28]  178
    x[19]     packing[29]  15
    x[19]     packing[30]  103
    x[19]     packing[32]  55
    x[19]     packing[33]  192
    x[19]     packing[36]  123
    x[19]     packing[37]  91
    x[19]     packing[38]  180
    x[19]     packing[40]  65
    x[19]     packing[41]  57
    x[19]     packing[42]  45
    x[19]     packing[46]  51
    x[19]     packing[47]  61
    x[19]     packing[49]  103
    x[19]     R63       1
    x[20]     OBJ       81
    x[20]     packing[0]  158
    x[20]     packing[1]  145
    x[20]     packing[2]  9
    x[20]     packing[3]  185
    x[20]     packing[5]  167
    x[20]     packing[6]  135
    x[20]     packing[8]  66
    x[20]     packing[9]  15
    x[20]     packing[11]  174
    x[20]     packing[12]  162
    x[20]     packing[13]  143
    x[20]     packing[14]  151
    x[20]     packing[15]  23
    x[20]     packing[16]  197
    x[20]     packing[17]  27
    x[20]     packing[18]  148
    x[20]     packing[19]  87
    x[20]     packing[20]  12
    x[20]     packing[21]  97
    x[20]     packing[22]  87
    x[20]     packing[23]  84
    x[20]     packing[24]  23
    x[20]     packing[25]  72
    x[20]     packing[26]  73
    x[20]     packing[27]  102
    x[20]     packing[28]  163
    x[20]     packing[29]  100
    x[20]     packing[30]  145
    x[20]     packing[31]  52
    x[20]     packing[33]  21
    x[20]     packing[34]  36
    x[20]     packing[35]  66
    x[20]     packing[39]  146
    x[20]     packing[43]  54
    x[20]     packing[44]  132
    x[20]     packing[45]  42
    x[20]     packing[46]  35
    x[20]     packing[47]  100
    x[20]     packing[48]  132
    x[20]     packing[49]  34
    MARKER    'MARKER'                 'INTEND'
RHS
    RHS1      packing[0]  815
    RHS1      packing[1]  893
    RHS1      packing[2]  759
    RHS1      packing[3]  831
    RHS1      packing[4]  697
    RHS1      packing[5]  989
    RHS1      packing[6]  887
    RHS1      packing[7]  631
    RHS1      packing[8]  819
    RHS1      packing[9]  833
    RHS1      packing[10]  652
    RHS1      packing[11]  540
    RHS1      packing[12]  711
    RHS1      packing[13]  837
    RHS1      packing[14]  725
    RHS1      packing[15]  705
    RHS1      packing[16]  772
    RHS1      packing[17]  819
    RHS1      packing[18]  802
    RHS1      packing[19]  700
    RHS1      packing[20]  469
    RHS1      packing[21]  512
    RHS1      packing[22]  801
    RHS1      packing[23]  780
    RHS1      packing[24]  604
    RHS1      packing[25]  1063
    RHS1      packing[26]  803
    RHS1      packing[27]  698
    RHS1      packing[28]  1048
    RHS1      packing[29]  944
    RHS1      packing[30]  714
    RHS1      packing[31]  844
    RHS1      packing[32]  729
    RHS1      packing[33]  762
    RHS1      packing[34]  726
    RHS1      packing[35]  654
    RHS1      packing[36]  539
    RHS1      packing[37]  898
    RHS1      packing[38]  780
    RHS1      packing[39]  796
    RHS1      packing[40]  675
    RHS1      packing[41]  609
    RHS1      packing[42]  925
    RHS1      packing[43]  393
    RHS1      packing[44]  722
    RHS1      packing[45]  621
    RHS1      packing[46]  795
    RHS1      packing[47]  791
    RHS1      packing[48]  842
    RHS1      packing[49]  827
    RHS1      R63       5
BOUNDS
 BV BND1      x[1]    
 BV BND1      x[2]    
 BV BND1      x[3]    
 BV BND1      x[4]    
 BV BND1      x[5]    
 BV BND1      x[6]    
 BV BND1      x[7]    
 BV BND1      x[8]    
 BV BND1      x[9]    
 BV BND1      x[10]   
 BV BND1      x[11]   
 BV BND1      x[12]   
 BV BND1      x[13]   
 BV BND1      x[14]   
 BV BND1      x[15]   
 BV BND1      x[16]   
 BV BND1      x[17]   
 BV BND1      x[18]   
 BV BND1      x[19]   
 BV BND1      x[20]   
ENDATA
